problem_generation/data/GISP/train/er_n=63_m=1208_p=0.60_SET2_setparam=100.00_alpha=0.50_39.lp
maximize
OBJ:100x0 + 100x1 + 100x2 + 100x3 + 100x4 + 100x5 + 100x6 + 100x7 + 100x8 + 100x9 + 100x10 + 100x11 + 100x12 + 100x13 + 100x14 + 100x15 + 100x16 + 100x17 + 100x18 + 100x19 + 100x20 + 100x21 + 100x22 + 100x23 + 100x24 + 100x25 + 100x26 + 100x27 + 100x28 + 100x29 + 100x30 + 100x31 + 100x32 + 100x33 + 100x34 + 100x35 + 100x36 + 100x37 + 100x38 + 100x39 + 100x40 + 100x41 + 100x42 + 100x43 + 100x44 + 100x45 + 100x46 + 100x47 + 100x48 + 100x49 + 100x50 + 100x51 + 100x52 + 100x53 + 100x54 + 100x55 + 100x56 + 100x57 + 100x58 + 100x59 + 100x60 + 100x61 + 100x62 - y7_17 - y15_30 - y36_62 - y17_58 - y28_58 - y29_32 - y0_5 - y0_23 - y11_23 - y21_55 - y10_27 - y41_42 - y25_34 - y2_41 - y10_54 - y33_56 - y14_15 - y25_61 - y32_60 - y43_60 - y22_37 - y14_51 - y47_48 - y55_61 - y17_44 - y7_21 - y47_57 - y28_62 - y9_58 - y6_34 - y29_36 - y48_49 - y40_45 - y48_58 - y10_31 - y2_36 - y2_45 - y22_23 - y51_59 - y43_55 - y35_60 - y16_56 - y36_43 - y55_56 - y7_16 - y17_48 - y5_55 - y28_57 - y21_27 - y6_38 - y29_40 - y29_49 - y2_13 - y10_26 - y39_62 - y25_33 - y32_41 - y51_54 - y22_27 - y24_46 - y14_23 - y43_59 - y24_55 - y35_55 - y16_51 - y17_25 - y7_11 - y5_41 - y36_56 - y47_56 - y5_50 - y9_48 - y28_61 - y50_58 - y6_33 - y6_42 - y21_49 - y39_57 - y2_17 - y10_39 - y2_35 - y35_41 - y3_18 - y14_18 - y16_37 - y24_50 - y35_59 - y5_36 - y17_38 - y28_38 - y47_51 - y6_37 - y21_35 - y31_48 - y12_44 - y20_57 - y54_59 - y4_49 - y23_62 - y3_4 - y32_40 - y35_36 - y1_43 - y32_58 - y43_58 - y13_54 - y24_54 - y9_11 - y16_59 - y46_60 - y9_29 - y17_42 - y6_14 - y5_58 - y42_44 - y27_55 - y6_32 - y20_34 - y31_43 - y12_39 - y2_16 - y23_48 - y12_57 - y16_18 - y1_29 - y13_31 - y43_53 - y16_36 - y35_49 - y16_45 - y35_58 - y38_51 - y38_60 - y27_41 - y27_50 - y30_46 - y30_55 - y0_51 - y23_25 - y31_38 - y4_39 - y12_52 - y12_61 - y1_51 - y5_12 - y46_50 - y9_10 - y9_19 - y38_55 - y5_30 - y49_55 - y27_36 - y19_32 - y8_41 - y8_59 - y20_24 - y0_55 - y20_33 - y23_29 - y31_42 - y4_25 - y20_51 - y12_56 - y1_19 - y34_53 - y16_26 - y34_62 - y45_62 - y5_16 - y9_14 - y26_48 - y38_50 - y26_57 - y38_59 - y27_40 - y19_36 - y8_45 - y19_45 - y42_47 - y11_41 - y11_50 - y0_59 - y12_24 - y23_24 - y20_37 - y31_37 - y39_41 - y23_33 - y41_60 - y1_5 - y34_39 - y13_16 - y37_44 - y5_11 - y15_43 - y26_43 - y46_58 - y18_39 - y26_52 - y26_61 - y19_22 - y30_31 - y0_27 - y11_27 - y30_40 - y0_36 - y8_49 - y11_45 - y11_54 - y20_32 - y4_24 - y53_56 - y22_50 - y37_48 - y45_61 - y56_61 - y14_55 - y37_57 - y5_6 - y18_25 - y15_38 - y26_38 - y7_34 - y18_34 - y15_56 - y0_13 - y18_61 - y27_39 - y29_58 - y19_35 - y19_44 - y11_49 - y33_46 - y41_59 - y52_59 - y2_58 - y25_60 - y45_56 - y15_24 - y15_42 - y26_42 - y18_38 - y18_47 - y18_56 - y19_21 - y48_57 - y8_30 - y29_62 - y11_35 - y4_5 - y33_41 - y4_14 - y25_46 - y33_59 - y25_55 - y22_31 - y37_47 - y3_54 - y15_19 - y37_56 - y36_60 - y15_37 - y7_33 - y26_46 - y7_42 - y0_3 - y29_48 - y29_57 - y40_57 - y21_53 - y10_34 - y33_45 - y10_52 - y33_54 - y2_48 - y25_50 - y22_35 - y3_31 - y37_42 - y22_53 - y3_49 - y15_32 - y7_28 - y28_60 - y18_37 - y9_56 - y8_11 - y40_43 - y21_39 - y0_16 - y21_48 - y6_59 - y29_61 - y41_44 - y25_27 - y10_38 - y25_36 - y44_49 - y2_43 - y3_8 - y10_56 - y3_17 - y43_62 - y22_39 - y13_58 - y17_46 - y36_59 - y9_42 - y59_61 - y5_53 - y17_55 - y28_55 - y21_25 - y0_2 - y29_38 - y48_51 - y29_47 - y21_43 - y21_52 - y54_58 - y33_35 - y2_38 - y25_40 - y10_51 - y51_52 - y2_47 - y32_48 - y2_56 - y3_21 - y14_21 - y32_57 - y35_53 - y43_57 - y3_30 - y35_62 - y36_45 - y17_41 - y5_48 - y28_50 - y5_57 - y29_33 - y21_38 - y29_51 - y6_58 - y2_24 - y31_60 - y2_42 - y3_7 - y13_39 - y13_48 - y1_55 - y17_27 - y9_23 - y36_58 - y5_52 - y17_54 - y5_61 - y21_24 - y29_37 - y39_50 - y10_23 - y39_59 - y12_60 - y13_25 - y2_37 - y23_60 - y32_47 - y13_52 - y35_52 - y13_61 - y35_61 - y17_22 - y28_31 - y5_38 - y9_45 - y5_56 - y9_54 - y50_55 - y8_58 - y19_58 - y39_45 - y2_14 - y20_50 - y2_23 - y4_42 - y20_59 - y12_55 - y13_20 - y1_27 - y24_29 - y32_42 - y16_25 - y1_45 - y13_47 - y16_43 - y35_56 - y16_52 - y46_62 - y57_62 - y9_40 - y6_25 - y42_46 - y30_62 - y23_32 - y39_58 - y23_41 - y2_18 - y20_54 - y12_50 - y13_15 - y23_50 - y4_46 - y12_59 - y13_24 - y16_20 - y13_33 - y43_46 - y16_29 - y46_48 - y38_44 - y49_53 - y17_30 - y28_30 - y9_35 - y27_43 - y6_20 - y8_39 - y30_39 - y30_48 - y11_44 - y19_57 - y30_57 - y42_59 - y20_40 - y12_36 - y23_36 - y20_49 - y31_58 - y23_54 - y4_50 - y1_26 - y13_28 - y45_60 - y13_37 - y24_37 - y16_33 - y1_44 - y16_42 - y5_14 - y46_61 - y9_21 - y26_55 - y27_29 - y18_60 - y8_25 - y30_34 - y8_43 - y30_43 - y42_45 - y19_52 - y30_61 - y0_57 - y12_31 - y31_44 - y23_40 - y12_49 - y23_49 - y4_45 - y53_59 - y16_19 - y45_55 - y22_62 - y3_58 - y5_9 - y46_47 - y26_41 - y26_59 - y38_61 - y7_55 - y8_20 - y19_20 - y11_25 - y8_38 - y8_47 - y8_56 - y41_53 - y4_13 - y12_26 - y23_26 - y33_58 - y12_35 - y23_35 - y1_7 - y37_46 - y22_57 - y56_59 - y14_53 - y15_27 - y26_36 - y18_32 - y7_41 - y15_54 - y8_15 - y8_24 - y0_20 - y8_33 - y11_29 - y8_42 - y30_42 - y19_51 - y30_51 - y41_48 - y20_25 - y52_57 - y4_17 - y12_30 - y25_49 - y44_62 - y1_2 - y4_35 - y1_11 - y34_45 - y53_58 - y37_41 - y14_48 - y37_50 - y37_59 - y7_27 - y37_49 - y26_49 - y18_45 - y15_58 - y7_54 - y18_54 - y48_55 - y11_15 - y0_24 - y29_60 - y8_37 - y19_37 - y11_42 - y41_52 - y44_57 - y2_51 - y25_53 - y22_29 - y2_60 - y14_34 - y14_43 - y22_56 - y45_58 - y3_61 - y15_26 - y55_62 - y7_22 - y18_31 - y15_44 - y18_40 - y0_1 - y18_49 - y8_14 - y29_46 - y8_23 - y19_23 - y0_19 - y40_55 - y30_32 - y0_28 - y25_30 - y33_43 - y25_39 - y4_16 - y33_52 - y2_46 - y33_61 - y22_24 - y34_35 - y14_29 - y34_44 - y14_47 - y14_56
 Subject to
C1: x0+x1-y0_1 <=1 
C2: x0+x2-y0_2 <=1 
C3: x0+x3-y0_3 <=1 
C4: x0+x4 <=1 
C5: x0+x5-y0_5 <=1 
C6: x0+x7 <=1 
C7: x0+x8 <=1 
C8: x0+x9 <=1 
C9: x0+x11 <=1 
C10: x0+x13-y0_13 <=1 
C11: x0+x14 <=1 
C12: x0+x15 <=1 
C13: x0+x16-y0_16 <=1 
C14: x0+x19-y0_19 <=1 
C15: x0+x20-y0_20 <=1 
C16: x0+x22 <=1 
C17: x0+x23-y0_23 <=1 
C18: x0+x24-y0_24 <=1 
C19: x0+x25 <=1 
C20: x0+x27-y0_27 <=1 
C21: x0+x28-y0_28 <=1 
C22: x0+x36-y0_36 <=1 
C23: x0+x37 <=1 
C24: x0+x38 <=1 
C25: x0+x39 <=1 
C26: x0+x40 <=1 
C27: x0+x43 <=1 
C28: x0+x46 <=1 
C29: x0+x49 <=1 
C30: x0+x51-y0_51 <=1 
C31: x0+x52 <=1 
C32: x0+x55-y0_55 <=1 
C33: x0+x57-y0_57 <=1 
C34: x0+x58 <=1 
C35: x0+x59-y0_59 <=1 
C36: x0+x62 <=1 
C37: x1+x2-y1_2 <=1 
C38: x1+x3 <=1 
C39: x1+x5-y1_5 <=1 
C40: x1+x7-y1_7 <=1 
C41: x1+x10 <=1 
C42: x1+x11-y1_11 <=1 
C43: x1+x13 <=1 
C44: x1+x16 <=1 
C45: x1+x18 <=1 
C46: x1+x19-y1_19 <=1 
C47: x1+x20 <=1 
C48: x1+x22 <=1 
C49: x1+x24 <=1 
C50: x1+x25 <=1 
C51: x1+x26-y1_26 <=1 
C52: x1+x27-y1_27 <=1 
C53: x1+x28 <=1 
C54: x1+x29-y1_29 <=1 
C55: x1+x32 <=1 
C56: x1+x33 <=1 
C57: x1+x34 <=1 
C58: x1+x36 <=1 
C59: x1+x37 <=1 
C60: x1+x39 <=1 
C61: x1+x40 <=1 
C62: x1+x41 <=1 
C63: x1+x43-y1_43 <=1 
C64: x1+x44-y1_44 <=1 
C65: x1+x45-y1_45 <=1 
C66: x1+x47 <=1 
C67: x1+x48 <=1 
C68: x1+x49 <=1 
C69: x1+x50 <=1 
C70: x1+x51-y1_51 <=1 
C71: x1+x52 <=1 
C72: x1+x54 <=1 
C73: x1+x55-y1_55 <=1 
C74: x1+x57 <=1 
C75: x1+x60 <=1 
C76: x1+x61 <=1 
C77: x1+x62 <=1 
C78: x2+x3 <=1 
C79: x2+x4 <=1 
C80: x2+x6 <=1 
C81: x2+x10 <=1 
C82: x2+x12 <=1 
C83: x2+x13-y2_13 <=1 
C84: x2+x14-y2_14 <=1 
C85: x2+x16-y2_16 <=1 
C86: x2+x17-y2_17 <=1 
C87: x2+x18-y2_18 <=1 
C88: x2+x19 <=1 
C89: x2+x21 <=1 
C90: x2+x23-y2_23 <=1 
C91: x2+x24-y2_24 <=1 
C92: x2+x26 <=1 
C93: x2+x27 <=1 
C94: x2+x30 <=1 
C95: x2+x31 <=1 
C96: x2+x33 <=1 
C97: x2+x34 <=1 
C98: x2+x35-y2_35 <=1 
C99: x2+x36-y2_36 <=1 
C100: x2+x37-y2_37 <=1 
C101: x2+x38-y2_38 <=1 
C102: x2+x41-y2_41 <=1 
C103: x2+x42-y2_42 <=1 
C104: x2+x43-y2_43 <=1 
C105: x2+x45-y2_45 <=1 
C106: x2+x46-y2_46 <=1 
C107: x2+x47-y2_47 <=1 
C108: x2+x48-y2_48 <=1 
C109: x2+x49 <=1 
C110: x2+x51-y2_51 <=1 
C111: x2+x52 <=1 
C112: x2+x53 <=1 
C113: x2+x56-y2_56 <=1 
C114: x2+x57 <=1 
C115: x2+x58-y2_58 <=1 
C116: x2+x59 <=1 
C117: x2+x60-y2_60 <=1 
C118: x2+x62 <=1 
C119: x3+x4-y3_4 <=1 
C120: x3+x5 <=1 
C121: x3+x7-y3_7 <=1 
C122: x3+x8-y3_8 <=1 
C123: x3+x10 <=1 
C124: x3+x13 <=1 
C125: x3+x14 <=1 
C126: x3+x15 <=1 
C127: x3+x17-y3_17 <=1 
C128: x3+x18-y3_18 <=1 
C129: x3+x20 <=1 
C130: x3+x21-y3_21 <=1 
C131: x3+x23 <=1 
C132: x3+x25 <=1 
C133: x3+x28 <=1 
C134: x3+x30-y3_30 <=1 
C135: x3+x31-y3_31 <=1 
C136: x3+x32 <=1 
C137: x3+x33 <=1 
C138: x3+x35 <=1 
C139: x3+x37 <=1 
C140: x3+x38 <=1 
C141: x3+x39 <=1 
C142: x3+x41 <=1 
C143: x3+x43 <=1 
C144: x3+x45 <=1 
C145: x3+x46 <=1 
C146: x3+x49-y3_49 <=1 
C147: x3+x50 <=1 
C148: x3+x54-y3_54 <=1 
C149: x3+x57 <=1 
C150: x3+x58-y3_58 <=1 
C151: x3+x59 <=1 
C152: x3+x60 <=1 
C153: x3+x61-y3_61 <=1 
C154: x4+x5-y4_5 <=1 
C155: x4+x9 <=1 
C156: x4+x11 <=1 
C157: x4+x12 <=1 
C158: x4+x13-y4_13 <=1 
C159: x4+x14-y4_14 <=1 
C160: x4+x16-y4_16 <=1 
C161: x4+x17-y4_17 <=1 
C162: x4+x20 <=1 
C163: x4+x21 <=1 
C164: x4+x23 <=1 
C165: x4+x24-y4_24 <=1 
C166: x4+x25-y4_25 <=1 
C167: x4+x28 <=1 
C168: x4+x29 <=1 
C169: x4+x30 <=1 
C170: x4+x31 <=1 
C171: x4+x32 <=1 
C172: x4+x35-y4_35 <=1 
C173: x4+x38 <=1 
C174: x4+x39-y4_39 <=1 
C175: x4+x40 <=1 
C176: x4+x41 <=1 
C177: x4+x42-y4_42 <=1 
C178: x4+x45-y4_45 <=1 
C179: x4+x46-y4_46 <=1 
C180: x4+x47 <=1 
C181: x4+x48 <=1 
C182: x4+x49-y4_49 <=1 
C183: x4+x50-y4_50 <=1 
C184: x4+x52 <=1 
C185: x4+x58 <=1 
C186: x4+x59 <=1 
C187: x5+x6-y5_6 <=1 
C188: x5+x7 <=1 
C189: x5+x9-y5_9 <=1 
C190: x5+x11-y5_11 <=1 
C191: x5+x12-y5_12 <=1 
C192: x5+x14-y5_14 <=1 
C193: x5+x15 <=1 
C194: x5+x16-y5_16 <=1 
C195: x5+x19 <=1 
C196: x5+x21 <=1 
C197: x5+x25 <=1 
C198: x5+x27 <=1 
C199: x5+x28 <=1 
C200: x5+x29 <=1 
C201: x5+x30-y5_30 <=1 
C202: x5+x31 <=1 
C203: x5+x36-y5_36 <=1 
C204: x5+x37 <=1 
C205: x5+x38-y5_38 <=1 
C206: x5+x39 <=1 
C207: x5+x40 <=1 
C208: x5+x41-y5_41 <=1 
C209: x5+x45 <=1 
C210: x5+x47 <=1 
C211: x5+x48-y5_48 <=1 
C212: x5+x50-y5_50 <=1 
C213: x5+x52-y5_52 <=1 
C214: x5+x53-y5_53 <=1 
C215: x5+x54 <=1 
C216: x5+x55-y5_55 <=1 
C217: x5+x56-y5_56 <=1 
C218: x5+x57-y5_57 <=1 
C219: x5+x58-y5_58 <=1 
C220: x5+x60 <=1 
C221: x5+x61-y5_61 <=1 
C222: x5+x62 <=1 
C223: x6+x8 <=1 
C224: x6+x9 <=1 
C225: x6+x12 <=1 
C226: x6+x13 <=1 
C227: x6+x14-y6_14 <=1 
C228: x6+x15 <=1 
C229: x6+x16 <=1 
C230: x6+x17 <=1 
C231: x6+x20-y6_20 <=1 
C232: x6+x21 <=1 
C233: x6+x22 <=1 
C234: x6+x25-y6_25 <=1 
C235: x6+x27 <=1 
C236: x6+x30 <=1 
C237: x6+x31 <=1 
C238: x6+x32-y6_32 <=1 
C239: x6+x33-y6_33 <=1 
C240: x6+x34-y6_34 <=1 
C241: x6+x37-y6_37 <=1 
C242: x6+x38-y6_38 <=1 
C243: x6+x42-y6_42 <=1 
C244: x6+x43 <=1 
C245: x6+x44 <=1 
C246: x6+x46 <=1 
C247: x6+x48 <=1 
C248: x6+x50 <=1 
C249: x6+x51 <=1 
C250: x6+x53 <=1 
C251: x6+x54 <=1 
C252: x6+x56 <=1 
C253: x6+x58-y6_58 <=1 
C254: x6+x59-y6_59 <=1 
C255: x6+x61 <=1 
C256: x7+x8 <=1 
C257: x7+x9 <=1 
C258: x7+x10 <=1 
C259: x7+x11-y7_11 <=1 
C260: x7+x12 <=1 
C261: x7+x16-y7_16 <=1 
C262: x7+x17-y7_17 <=1 
C263: x7+x19 <=1 
C264: x7+x20 <=1 
C265: x7+x21-y7_21 <=1 
C266: x7+x22-y7_22 <=1 
C267: x7+x26 <=1 
C268: x7+x27-y7_27 <=1 
C269: x7+x28-y7_28 <=1 
C270: x7+x29 <=1 
C271: x7+x30 <=1 
C272: x7+x33-y7_33 <=1 
C273: x7+x34-y7_34 <=1 
C274: x7+x35 <=1 
C275: x7+x36 <=1 
C276: x7+x41-y7_41 <=1 
C277: x7+x42-y7_42 <=1 
C278: x7+x43 <=1 
C279: x7+x44 <=1 
C280: x7+x46 <=1 
C281: x7+x47 <=1 
C282: x7+x48 <=1 
C283: x7+x52 <=1 
C284: x7+x53 <=1 
C285: x7+x54-y7_54 <=1 
C286: x7+x55-y7_55 <=1 
C287: x7+x57 <=1 
C288: x7+x59 <=1 
C289: x7+x62 <=1 
C290: x8+x9 <=1 
C291: x8+x11-y8_11 <=1 
C292: x8+x12 <=1 
C293: x8+x13 <=1 
C294: x8+x14-y8_14 <=1 
C295: x8+x15-y8_15 <=1 
C296: x8+x17 <=1 
C297: x8+x18 <=1 
C298: x8+x20-y8_20 <=1 
C299: x8+x22 <=1 
C300: x8+x23-y8_23 <=1 
C301: x8+x24-y8_24 <=1 
C302: x8+x25-y8_25 <=1 
C303: x8+x26 <=1 
C304: x8+x27 <=1 
C305: x8+x30-y8_30 <=1 
C306: x8+x31 <=1 
C307: x8+x33-y8_33 <=1 
C308: x8+x35 <=1 
C309: x8+x37-y8_37 <=1 
C310: x8+x38-y8_38 <=1 
C311: x8+x39-y8_39 <=1 
C312: x8+x41-y8_41 <=1 
C313: x8+x42-y8_42 <=1 
C314: x8+x43-y8_43 <=1 
C315: x8+x45-y8_45 <=1 
C316: x8+x47-y8_47 <=1 
C317: x8+x48 <=1 
C318: x8+x49-y8_49 <=1 
C319: x8+x50 <=1 
C320: x8+x51 <=1 
C321: x8+x52 <=1 
C322: x8+x54 <=1 
C323: x8+x55 <=1 
C324: x8+x56-y8_56 <=1 
C325: x8+x57 <=1 
C326: x8+x58-y8_58 <=1 
C327: x8+x59-y8_59 <=1 
C328: x8+x62 <=1 
C329: x9+x10-y9_10 <=1 
C330: x9+x11-y9_11 <=1 
C331: x9+x14-y9_14 <=1 
C332: x9+x15 <=1 
C333: x9+x17 <=1 
C334: x9+x19-y9_19 <=1 
C335: x9+x21-y9_21 <=1 
C336: x9+x23-y9_23 <=1 
C337: x9+x24 <=1 
C338: x9+x25 <=1 
C339: x9+x28 <=1 
C340: x9+x29-y9_29 <=1 
C341: x9+x30 <=1 
C342: x9+x31 <=1 
C343: x9+x33 <=1 
C344: x9+x34 <=1 
C345: x9+x35-y9_35 <=1 
C346: x9+x38 <=1 
C347: x9+x40-y9_40 <=1 
C348: x9+x42-y9_42 <=1 
C349: x9+x43 <=1 
C350: x9+x44 <=1 
C351: x9+x45-y9_45 <=1 
C352: x9+x47 <=1 
C353: x9+x48-y9_48 <=1 
C354: x9+x51 <=1 
C355: x9+x52 <=1 
C356: x9+x54-y9_54 <=1 
C357: x9+x56-y9_56 <=1 
C358: x9+x58-y9_58 <=1 
C359: x9+x61 <=1 
C360: x10+x13 <=1 
C361: x10+x19 <=1 
C362: x10+x22 <=1 
C363: x10+x23-y10_23 <=1 
C364: x10+x24 <=1 
C365: x10+x26-y10_26 <=1 
C366: x10+x27-y10_27 <=1 
C367: x10+x29 <=1 
C368: x10+x31-y10_31 <=1 
C369: x10+x34-y10_34 <=1 
C370: x10+x37 <=1 
C371: x10+x38-y10_38 <=1 
C372: x10+x39-y10_39 <=1 
C373: x10+x41 <=1 
C374: x10+x44 <=1 
C375: x10+x46 <=1 
C376: x10+x47 <=1 
C377: x10+x51-y10_51 <=1 
C378: x10+x52-y10_52 <=1 
C379: x10+x53 <=1 
C380: x10+x54-y10_54 <=1 
C381: x10+x55 <=1 
C382: x10+x56-y10_56 <=1 
C383: x10+x60 <=1 
C384: x10+x61 <=1 
C385: x10+x62 <=1 
C386: x11+x12 <=1 
C387: x11+x13 <=1 
C388: x11+x15-y11_15 <=1 
C389: x11+x17 <=1 
C390: x11+x18 <=1 
C391: x11+x20 <=1 
C392: x11+x21 <=1 
C393: x11+x23-y11_23 <=1 
C394: x11+x24 <=1 
C395: x11+x25-y11_25 <=1 
C396: x11+x26 <=1 
C397: x11+x27-y11_27 <=1 
C398: x11+x29-y11_29 <=1 
C399: x11+x32 <=1 
C400: x11+x33 <=1 
C401: x11+x34 <=1 
C402: x11+x35-y11_35 <=1 
C403: x11+x38 <=1 
C404: x11+x39 <=1 
C405: x11+x40 <=1 
C406: x11+x41-y11_41 <=1 
C407: x11+x42-y11_42 <=1 
C408: x11+x43 <=1 
C409: x11+x44-y11_44 <=1 
C410: x11+x45-y11_45 <=1 
C411: x11+x49-y11_49 <=1 
C412: x11+x50-y11_50 <=1 
C413: x11+x54-y11_54 <=1 
C414: x11+x55 <=1 
C415: x11+x56 <=1 
C416: x11+x57 <=1 
C417: x11+x60 <=1 
C418: x12+x14 <=1 
C419: x12+x15 <=1 
C420: x12+x16 <=1 
C421: x12+x19 <=1 
C422: x12+x20 <=1 
C423: x12+x21 <=1 
C424: x12+x24-y12_24 <=1 
C425: x12+x26-y12_26 <=1 
C426: x12+x28 <=1 
C427: x12+x30-y12_30 <=1 
C428: x12+x31-y12_31 <=1 
C429: x12+x32 <=1 
C430: x12+x35-y12_35 <=1 
C431: x12+x36-y12_36 <=1 
C432: x12+x39-y12_39 <=1 
C433: x12+x40 <=1 
C434: x12+x43 <=1 
C435: x12+x44-y12_44 <=1 
C436: x12+x47 <=1 
C437: x12+x49-y12_49 <=1 
C438: x12+x50-y12_50 <=1 
C439: x12+x52-y12_52 <=1 
C440: x12+x54 <=1 
C441: x12+x55-y12_55 <=1 
C442: x12+x56-y12_56 <=1 
C443: x12+x57-y12_57 <=1 
C444: x12+x59-y12_59 <=1 
C445: x12+x60-y12_60 <=1 
C446: x12+x61-y12_61 <=1 
C447: x12+x62 <=1 
C448: x13+x14 <=1 
C449: x13+x15-y13_15 <=1 
C450: x13+x16-y13_16 <=1 
C451: x13+x18 <=1 
C452: x13+x20-y13_20 <=1 
C453: x13+x23 <=1 
C454: x13+x24-y13_24 <=1 
C455: x13+x25-y13_25 <=1 
C456: x13+x27 <=1 
C457: x13+x28-y13_28 <=1 
C458: x13+x31-y13_31 <=1 
C459: x13+x33-y13_33 <=1 
C460: x13+x34 <=1 
C461: x13+x35 <=1 
C462: x13+x36 <=1 
C463: x13+x37-y13_37 <=1 
C464: x13+x39-y13_39 <=1 
C465: x13+x41 <=1 
C466: x13+x42 <=1 
C467: x13+x44 <=1 
C468: x13+x45 <=1 
C469: x13+x47-y13_47 <=1 
C470: x13+x48-y13_48 <=1 
C471: x13+x49 <=1 
C472: x13+x52-y13_52 <=1 
C473: x13+x54-y13_54 <=1 
C474: x13+x56 <=1 
C475: x13+x57 <=1 
C476: x13+x58-y13_58 <=1 
C477: x13+x61-y13_61 <=1 
C478: x13+x62 <=1 
C479: x14+x15-y14_15 <=1 
C480: x14+x17 <=1 
C481: x14+x18-y14_18 <=1 
C482: x14+x19 <=1 
C483: x14+x21-y14_21 <=1 
C484: x14+x22 <=1 
C485: x14+x23-y14_23 <=1 
C486: x14+x25 <=1 
C487: x14+x27 <=1 
C488: x14+x28 <=1 
C489: x14+x29-y14_29 <=1 
C490: x14+x30 <=1 
C491: x14+x31 <=1 
C492: x14+x32 <=1 
C493: x14+x34-y14_34 <=1 
C494: x14+x35 <=1 
C495: x14+x37 <=1 
C496: x14+x40 <=1 
C497: x14+x43-y14_43 <=1 
C498: x14+x46 <=1 
C499: x14+x47-y14_47 <=1 
C500: x14+x48-y14_48 <=1 
C501: x14+x49 <=1 
C502: x14+x51-y14_51 <=1 
C503: x14+x53-y14_53 <=1 
C504: x14+x55-y14_55 <=1 
C505: x14+x56-y14_56 <=1 
C506: x14+x61 <=1 
C507: x15+x17 <=1 
C508: x15+x18 <=1 
C509: x15+x19-y15_19 <=1 
C510: x15+x20 <=1 
C511: x15+x22 <=1 
C512: x15+x24-y15_24 <=1 
C513: x15+x26-y15_26 <=1 
C514: x15+x27-y15_27 <=1 
C515: x15+x28 <=1 
C516: x15+x29 <=1 
C517: x15+x30-y15_30 <=1 
C518: x15+x31 <=1 
C519: x15+x32-y15_32 <=1 
C520: x15+x33 <=1 
C521: x15+x34 <=1 
C522: x15+x37-y15_37 <=1 
C523: x15+x38-y15_38 <=1 
C524: x15+x39 <=1 
C525: x15+x40 <=1 
C526: x15+x42-y15_42 <=1 
C527: x15+x43-y15_43 <=1 
C528: x15+x44-y15_44 <=1 
C529: x15+x45 <=1 
C530: x15+x47 <=1 
C531: x15+x50 <=1 
C532: x15+x51 <=1 
C533: x15+x52 <=1 
C534: x15+x53 <=1 
C535: x15+x54-y15_54 <=1 
C536: x15+x56-y15_56 <=1 
C537: x15+x58-y15_58 <=1 
C538: x15+x60 <=1 
C539: x15+x62 <=1 
C540: x16+x18-y16_18 <=1 
C541: x16+x19-y16_19 <=1 
C542: x16+x20-y16_20 <=1 
C543: x16+x23 <=1 
C544: x16+x24 <=1 
C545: x16+x25-y16_25 <=1 
C546: x16+x26-y16_26 <=1 
C547: x16+x29-y16_29 <=1 
C548: x16+x31 <=1 
C549: x16+x33-y16_33 <=1 
C550: x16+x35 <=1 
C551: x16+x36-y16_36 <=1 
C552: x16+x37-y16_37 <=1 
C553: x16+x38 <=1 
C554: x16+x39 <=1 
C555: x16+x40 <=1 
C556: x16+x42-y16_42 <=1 
C557: x16+x43-y16_43 <=1 
C558: x16+x45-y16_45 <=1 
C559: x16+x46 <=1 
C560: x16+x50 <=1 
C561: x16+x51-y16_51 <=1 
C562: x16+x52-y16_52 <=1 
C563: x16+x55 <=1 
C564: x16+x56-y16_56 <=1 
C565: x16+x59-y16_59 <=1 
C566: x16+x61 <=1 
C567: x16+x62 <=1 
C568: x17+x22-y17_22 <=1 
C569: x17+x25-y17_25 <=1 
C570: x17+x26 <=1 
C571: x17+x27-y17_27 <=1 
C572: x17+x28 <=1 
C573: x17+x30-y17_30 <=1 
C574: x17+x31 <=1 
C575: x17+x32 <=1 
C576: x17+x33 <=1 
C577: x17+x34 <=1 
C578: x17+x35 <=1 
C579: x17+x38-y17_38 <=1 
C580: x17+x39 <=1 
C581: x17+x41-y17_41 <=1 
C582: x17+x42-y17_42 <=1 
C583: x17+x44-y17_44 <=1 
C584: x17+x45 <=1 
C585: x17+x46-y17_46 <=1 
C586: x17+x48-y17_48 <=1 
C587: x17+x54-y17_54 <=1 
C588: x17+x55-y17_55 <=1 
C589: x17+x56 <=1 
C590: x17+x57 <=1 
C591: x17+x58-y17_58 <=1 
C592: x17+x60 <=1 
C593: x17+x61 <=1 
C594: x18+x21 <=1 
C595: x18+x22 <=1 
C596: x18+x24 <=1 
C597: x18+x25-y18_25 <=1 
C598: x18+x26 <=1 
C599: x18+x27 <=1 
C600: x18+x30 <=1 
C601: x18+x31-y18_31 <=1 
C602: x18+x32-y18_32 <=1 
C603: x18+x34-y18_34 <=1 
C604: x18+x37-y18_37 <=1 
C605: x18+x38-y18_38 <=1 
C606: x18+x39-y18_39 <=1 
C607: x18+x40-y18_40 <=1 
C608: x18+x41 <=1 
C609: x18+x45-y18_45 <=1 
C610: x18+x47-y18_47 <=1 
C611: x18+x49-y18_49 <=1 
C612: x18+x52 <=1 
C613: x18+x53 <=1 
C614: x18+x54-y18_54 <=1 
C615: x18+x55 <=1 
C616: x18+x56-y18_56 <=1 
C617: x18+x58 <=1 
C618: x18+x60-y18_60 <=1 
C619: x18+x61-y18_61 <=1 
C620: x19+x20-y19_20 <=1 
C621: x19+x21-y19_21 <=1 
C622: x19+x22-y19_22 <=1 
C623: x19+x23-y19_23 <=1 
C624: x19+x24 <=1 
C625: x19+x25 <=1 
C626: x19+x27 <=1 
C627: x19+x30 <=1 
C628: x19+x32-y19_32 <=1 
C629: x19+x33 <=1 
C630: x19+x34 <=1 
C631: x19+x35-y19_35 <=1 
C632: x19+x36-y19_36 <=1 
C633: x19+x37-y19_37 <=1 
C634: x19+x39 <=1 
C635: x19+x40 <=1 
C636: x19+x41 <=1 
C637: x19+x44-y19_44 <=1 
C638: x19+x45-y19_45 <=1 
C639: x19+x47 <=1 
C640: x19+x50 <=1 
C641: x19+x51-y19_51 <=1 
C642: x19+x52-y19_52 <=1 
C643: x19+x54 <=1 
C644: x19+x55 <=1 
C645: x19+x56 <=1 
C646: x19+x57-y19_57 <=1 
C647: x19+x58-y19_58 <=1 
C648: x19+x59 <=1 
C649: x20+x23 <=1 
C650: x20+x24-y20_24 <=1 
C651: x20+x25-y20_25 <=1 
C652: x20+x28 <=1 
C653: x20+x30 <=1 
C654: x20+x31 <=1 
C655: x20+x32-y20_32 <=1 
C656: x20+x33-y20_33 <=1 
C657: x20+x34-y20_34 <=1 
C658: x20+x35 <=1 
C659: x20+x37-y20_37 <=1 
C660: x20+x40-y20_40 <=1 
C661: x20+x42 <=1 
C662: x20+x43 <=1 
C663: x20+x47 <=1 
C664: x20+x49-y20_49 <=1 
C665: x20+x50-y20_50 <=1 
C666: x20+x51-y20_51 <=1 
C667: x20+x52 <=1 
C668: x20+x53 <=1 
C669: x20+x54-y20_54 <=1 
C670: x20+x56 <=1 
C671: x20+x57-y20_57 <=1 
C672: x20+x59-y20_59 <=1 
C673: x20+x60 <=1 
C674: x20+x61 <=1 
C675: x21+x23 <=1 
C676: x21+x24-y21_24 <=1 
C677: x21+x25-y21_25 <=1 
C678: x21+x27-y21_27 <=1 
C679: x21+x29 <=1 
C680: x21+x34 <=1 
C681: x21+x35-y21_35 <=1 
C682: x21+x36 <=1 
C683: x21+x38-y21_38 <=1 
C684: x21+x39-y21_39 <=1 
C685: x21+x43-y21_43 <=1 
C686: x21+x44 <=1 
C687: x21+x48-y21_48 <=1 
C688: x21+x49-y21_49 <=1 
C689: x21+x52-y21_52 <=1 
C690: x21+x53-y21_53 <=1 
C691: x21+x55-y21_55 <=1 
C692: x21+x59 <=1 
C693: x21+x60 <=1 
C694: x21+x61 <=1 
C695: x21+x62 <=1 
C696: x22+x23-y22_23 <=1 
C697: x22+x24-y22_24 <=1 
C698: x22+x25 <=1 
C699: x22+x27-y22_27 <=1 
C700: x22+x29-y22_29 <=1 
C701: x22+x30 <=1 
C702: x22+x31-y22_31 <=1 
C703: x22+x35-y22_35 <=1 
C704: x22+x37-y22_37 <=1 
C705: x22+x38 <=1 
C706: x22+x39-y22_39 <=1 
C707: x22+x41 <=1 
C708: x22+x49 <=1 
C709: x22+x50-y22_50 <=1 
C710: x22+x51 <=1 
C711: x22+x52 <=1 
C712: x22+x53-y22_53 <=1 
C713: x22+x54 <=1 
C714: x22+x55 <=1 
C715: x22+x56-y22_56 <=1 
C716: x22+x57-y22_57 <=1 
C717: x22+x58 <=1 
C718: x22+x62-y22_62 <=1 
C719: x23+x24-y23_24 <=1 
C720: x23+x25-y23_25 <=1 
C721: x23+x26-y23_26 <=1 
C722: x23+x27 <=1 
C723: x23+x29-y23_29 <=1 
C724: x23+x31 <=1 
C725: x23+x32-y23_32 <=1 
C726: x23+x33-y23_33 <=1 
C727: x23+x34 <=1 
C728: x23+x35-y23_35 <=1 
C729: x23+x36-y23_36 <=1 
C730: x23+x38 <=1 
C731: x23+x39 <=1 
C732: x23+x40-y23_40 <=1 
C733: x23+x41-y23_41 <=1 
C734: x23+x47 <=1 
C735: x23+x48-y23_48 <=1 
C736: x23+x49-y23_49 <=1 
C737: x23+x50-y23_50 <=1 
C738: x23+x51 <=1 
C739: x23+x52 <=1 
C740: x23+x54-y23_54 <=1 
C741: x23+x56 <=1 
C742: x23+x60-y23_60 <=1 
C743: x23+x61 <=1 
C744: x23+x62-y23_62 <=1 
C745: x24+x26 <=1 
C746: x24+x27 <=1 
C747: x24+x29-y24_29 <=1 
C748: x24+x37-y24_37 <=1 
C749: x24+x40 <=1 
C750: x24+x42 <=1 
C751: x24+x44 <=1 
C752: x24+x46-y24_46 <=1 
C753: x24+x50-y24_50 <=1 
C754: x24+x51 <=1 
C755: x24+x54-y24_54 <=1 
C756: x24+x55-y24_55 <=1 
C757: x24+x58 <=1 
C758: x25+x27-y25_27 <=1 
C759: x25+x28 <=1 
C760: x25+x29 <=1 
C761: x25+x30-y25_30 <=1 
C762: x25+x32 <=1 
C763: x25+x33-y25_33 <=1 
C764: x25+x34-y25_34 <=1 
C765: x25+x36-y25_36 <=1 
C766: x25+x39-y25_39 <=1 
C767: x25+x40-y25_40 <=1 
C768: x25+x44 <=1 
C769: x25+x45 <=1 
C770: x25+x46-y25_46 <=1 
C771: x25+x48 <=1 
C772: x25+x49-y25_49 <=1 
C773: x25+x50-y25_50 <=1 
C774: x25+x53-y25_53 <=1 
C775: x25+x55-y25_55 <=1 
C776: x25+x57 <=1 
C777: x25+x59 <=1 
C778: x25+x60-y25_60 <=1 
C779: x25+x61-y25_61 <=1 
C780: x25+x62 <=1 
C781: x26+x27 <=1 
C782: x26+x28 <=1 
C783: x26+x29 <=1 
C784: x26+x31 <=1 
C785: x26+x32 <=1 
C786: x26+x36-y26_36 <=1 
C787: x26+x37 <=1 
C788: x26+x38-y26_38 <=1 
C789: x26+x39 <=1 
C790: x26+x41-y26_41 <=1 
C791: x26+x42-y26_42 <=1 
C792: x26+x43-y26_43 <=1 
C793: x26+x44 <=1 
C794: x26+x46-y26_46 <=1 
C795: x26+x47 <=1 
C796: x26+x48-y26_48 <=1 
C797: x26+x49-y26_49 <=1 
C798: x26+x52-y26_52 <=1 
C799: x26+x55-y26_55 <=1 
C800: x26+x57-y26_57 <=1 
C801: x26+x58 <=1 
C802: x26+x59-y26_59 <=1 
C803: x26+x61-y26_61 <=1 
C804: x27+x29-y27_29 <=1 
C805: x27+x30 <=1 
C806: x27+x34 <=1 
C807: x27+x35 <=1 
C808: x27+x36-y27_36 <=1 
C809: x27+x39-y27_39 <=1 
C810: x27+x40-y27_40 <=1 
C811: x27+x41-y27_41 <=1 
C812: x27+x43-y27_43 <=1 
C813: x27+x45 <=1 
C814: x27+x46 <=1 
C815: x27+x47 <=1 
C816: x27+x48 <=1 
C817: x27+x49 <=1 
C818: x27+x50-y27_50 <=1 
C819: x27+x51 <=1 
C820: x27+x52 <=1 
C821: x27+x53 <=1 
C822: x27+x54 <=1 
C823: x27+x55-y27_55 <=1 
C824: x27+x56 <=1 
C825: x27+x59 <=1 
C826: x27+x60 <=1 
C827: x28+x30-y28_30 <=1 
C828: x28+x31-y28_31 <=1 
C829: x28+x33 <=1 
C830: x28+x35 <=1 
C831: x28+x37 <=1 
C832: x28+x38-y28_38 <=1 
C833: x28+x40 <=1 
C834: x28+x41 <=1 
C835: x28+x46 <=1 
C836: x28+x47 <=1 
C837: x28+x50-y28_50 <=1 
C838: x28+x54 <=1 
C839: x28+x55-y28_55 <=1 
C840: x28+x56 <=1 
C841: x28+x57-y28_57 <=1 
C842: x28+x58-y28_58 <=1 
C843: x28+x59 <=1 
C844: x28+x60-y28_60 <=1 
C845: x28+x61-y28_61 <=1 
C846: x28+x62-y28_62 <=1 
C847: x29+x32-y29_32 <=1 
C848: x29+x33-y29_33 <=1 
C849: x29+x34 <=1 
C850: x29+x36-y29_36 <=1 
C851: x29+x37-y29_37 <=1 
C852: x29+x38-y29_38 <=1 
C853: x29+x40-y29_40 <=1 
C854: x29+x41 <=1 
C855: x29+x44 <=1 
C856: x29+x45 <=1 
C857: x29+x46-y29_46 <=1 
C858: x29+x47-y29_47 <=1 
C859: x29+x48-y29_48 <=1 
C860: x29+x49-y29_49 <=1 
C861: x29+x50 <=1 
C862: x29+x51-y29_51 <=1 
C863: x29+x52 <=1 
C864: x29+x53 <=1 
C865: x29+x57-y29_57 <=1 
C866: x29+x58-y29_58 <=1 
C867: x29+x59 <=1 
C868: x29+x60-y29_60 <=1 
C869: x29+x61-y29_61 <=1 
C870: x29+x62-y29_62 <=1 
C871: x30+x31-y30_31 <=1 
C872: x30+x32-y30_32 <=1 
C873: x30+x34-y30_34 <=1 
C874: x30+x35 <=1 
C875: x30+x36 <=1 
C876: x30+x39-y30_39 <=1 
C877: x30+x40-y30_40 <=1 
C878: x30+x42-y30_42 <=1 
C879: x30+x43-y30_43 <=1 
C880: x30+x46-y30_46 <=1 
C881: x30+x47 <=1 
C882: x30+x48-y30_48 <=1 
C883: x30+x49 <=1 
C884: x30+x50 <=1 
C885: x30+x51-y30_51 <=1 
C886: x30+x52 <=1 
C887: x30+x53 <=1 
C888: x30+x55-y30_55 <=1 
C889: x30+x56 <=1 
C890: x30+x57-y30_57 <=1 
C891: x30+x61-y30_61 <=1 
C892: x30+x62-y30_62 <=1 
C893: x31+x32 <=1 
C894: x31+x33 <=1 
C895: x31+x35 <=1 
C896: x31+x37-y31_37 <=1 
C897: x31+x38-y31_38 <=1 
C898: x31+x39 <=1 
C899: x31+x40 <=1 
C900: x31+x42-y31_42 <=1 
C901: x31+x43-y31_43 <=1 
C902: x31+x44-y31_44 <=1 
C903: x31+x46 <=1 
C904: x31+x47 <=1 
C905: x31+x48-y31_48 <=1 
C906: x31+x49 <=1 
C907: x31+x51 <=1 
C908: x31+x53 <=1 
C909: x31+x54 <=1 
C910: x31+x55 <=1 
C911: x31+x56 <=1 
C912: x31+x58-y31_58 <=1 
C913: x31+x59 <=1 
C914: x31+x60-y31_60 <=1 
C915: x32+x33 <=1 
C916: x32+x35 <=1 
C917: x32+x39 <=1 
C918: x32+x40-y32_40 <=1 
C919: x32+x41-y32_41 <=1 
C920: x32+x42-y32_42 <=1 
C921: x32+x43 <=1 
C922: x32+x47-y32_47 <=1 
C923: x32+x48-y32_48 <=1 
C924: x32+x49 <=1 
C925: x32+x51 <=1 
C926: x32+x53 <=1 
C927: x32+x55 <=1 
C928: x32+x56 <=1 
C929: x32+x57-y32_57 <=1 
C930: x32+x58-y32_58 <=1 
C931: x32+x59 <=1 
C932: x32+x60-y32_60 <=1 
C933: x32+x62 <=1 
C934: x33+x34 <=1 
C935: x33+x35-y33_35 <=1 
C936: x33+x37 <=1 
C937: x33+x40 <=1 
C938: x33+x41-y33_41 <=1 
C939: x33+x43-y33_43 <=1 
C940: x33+x45-y33_45 <=1 
C941: x33+x46-y33_46 <=1 
C942: x33+x52-y33_52 <=1 
C943: x33+x53 <=1 
C944: x33+x54-y33_54 <=1 
C945: x33+x56-y33_56 <=1 
C946: x33+x57 <=1 
C947: x33+x58-y33_58 <=1 
C948: x33+x59-y33_59 <=1 
C949: x33+x60 <=1 
C950: x33+x61-y33_61 <=1 
C951: x34+x35-y34_35 <=1 
C952: x34+x37 <=1 
C953: x34+x38 <=1 
C954: x34+x39-y34_39 <=1 
C955: x34+x40 <=1 
C956: x34+x41 <=1 
C957: x34+x42 <=1 
C958: x34+x43 <=1 
C959: x34+x44-y34_44 <=1 
C960: x34+x45-y34_45 <=1 
C961: x34+x47 <=1 
C962: x34+x49 <=1 
C963: x34+x50 <=1 
C964: x34+x51 <=1 
C965: x34+x52 <=1 
C966: x34+x53-y34_53 <=1 
C967: x34+x54 <=1 
C968: x34+x59 <=1 
C969: x34+x61 <=1 
C970: x34+x62-y34_62 <=1 
C971: x35+x36-y35_36 <=1 
C972: x35+x37 <=1 
C973: x35+x38 <=1 
C974: x35+x39 <=1 
C975: x35+x41-y35_41 <=1 
C976: x35+x42 <=1 
C977: x35+x44 <=1 
C978: x35+x46 <=1 
C979: x35+x49-y35_49 <=1 
C980: x35+x50 <=1 
C981: x35+x52-y35_52 <=1 
C982: x35+x53-y35_53 <=1 
C983: x35+x55-y35_55 <=1 
C984: x35+x56-y35_56 <=1 
C985: x35+x58-y35_58 <=1 
C986: x35+x59-y35_59 <=1 
C987: x35+x60-y35_60 <=1 
C988: x35+x61-y35_61 <=1 
C989: x35+x62-y35_62 <=1 
C990: x36+x39 <=1 
C991: x36+x43-y36_43 <=1 
C992: x36+x45-y36_45 <=1 
C993: x36+x46 <=1 
C994: x36+x47 <=1 
C995: x36+x48 <=1 
C996: x36+x51 <=1 
C997: x36+x53 <=1 
C998: x36+x54 <=1 
C999: x36+x55 <=1 
C1000: x36+x56-y36_56 <=1 
C1001: x36+x58-y36_58 <=1 
C1002: x36+x59-y36_59 <=1 
C1003: x36+x60-y36_60 <=1 
C1004: x36+x61 <=1 
C1005: x36+x62-y36_62 <=1 
C1006: x37+x39 <=1 
C1007: x37+x41-y37_41 <=1 
C1008: x37+x42-y37_42 <=1 
C1009: x37+x44-y37_44 <=1 
C1010: x37+x45 <=1 
C1011: x37+x46-y37_46 <=1 
C1012: x37+x47-y37_47 <=1 
C1013: x37+x48-y37_48 <=1 
C1014: x37+x49-y37_49 <=1 
C1015: x37+x50-y37_50 <=1 
C1016: x37+x52 <=1 
C1017: x37+x54 <=1 
C1018: x37+x55 <=1 
C1019: x37+x56-y37_56 <=1 
C1020: x37+x57-y37_57 <=1 
C1021: x37+x58 <=1 
C1022: x37+x59-y37_59 <=1 
C1023: x37+x60 <=1 
C1024: x38+x39 <=1 
C1025: x38+x40 <=1 
C1026: x38+x43 <=1 
C1027: x38+x44-y38_44 <=1 
C1028: x38+x46 <=1 
C1029: x38+x47 <=1 
C1030: x38+x48 <=1 
C1031: x38+x50-y38_50 <=1 
C1032: x38+x51-y38_51 <=1 
C1033: x38+x53 <=1 
C1034: x38+x55-y38_55 <=1 
C1035: x38+x58 <=1 
C1036: x38+x59-y38_59 <=1 
C1037: x38+x60-y38_60 <=1 
C1038: x38+x61-y38_61 <=1 
C1039: x39+x41-y39_41 <=1 
C1040: x39+x44 <=1 
C1041: x39+x45-y39_45 <=1 
C1042: x39+x48 <=1 
C1043: x39+x50-y39_50 <=1 
C1044: x39+x51 <=1 
C1045: x39+x56 <=1 
C1046: x39+x57-y39_57 <=1 
C1047: x39+x58-y39_58 <=1 
C1048: x39+x59-y39_59 <=1 
C1049: x39+x60 <=1 
C1050: x39+x61 <=1 
C1051: x39+x62-y39_62 <=1 
C1052: x40+x42 <=1 
C1053: x40+x43-y40_43 <=1 
C1054: x40+x44 <=1 
C1055: x40+x45-y40_45 <=1 
C1056: x40+x47 <=1 
C1057: x40+x48 <=1 
C1058: x40+x49 <=1 
C1059: x40+x51 <=1 
C1060: x40+x52 <=1 
C1061: x40+x54 <=1 
C1062: x40+x55-y40_55 <=1 
C1063: x40+x56 <=1 
C1064: x40+x57-y40_57 <=1 
C1065: x40+x59 <=1 
C1066: x40+x61 <=1 
C1067: x40+x62 <=1 
C1068: x41+x42-y41_42 <=1 
C1069: x41+x43 <=1 
C1070: x41+x44-y41_44 <=1 
C1071: x41+x48-y41_48 <=1 
C1072: x41+x50 <=1 
C1073: x41+x52-y41_52 <=1 
C1074: x41+x53-y41_53 <=1 
C1075: x41+x54 <=1 
C1076: x41+x55 <=1 
C1077: x41+x56 <=1 
C1078: x41+x59-y41_59 <=1 
C1079: x41+x60-y41_60 <=1 
C1080: x41+x61 <=1 
C1081: x42+x44-y42_44 <=1 
C1082: x42+x45-y42_45 <=1 
C1083: x42+x46-y42_46 <=1 
C1084: x42+x47-y42_47 <=1 
C1085: x42+x48 <=1 
C1086: x42+x51 <=1 
C1087: x42+x54 <=1 
C1088: x42+x55 <=1 
C1089: x42+x56 <=1 
C1090: x42+x59-y42_59 <=1 
C1091: x42+x60 <=1 
C1092: x42+x61 <=1 
C1093: x42+x62 <=1 
C1094: x43+x45 <=1 
C1095: x43+x46-y43_46 <=1 
C1096: x43+x47 <=1 
C1097: x43+x48 <=1 
C1098: x43+x49 <=1 
C1099: x43+x52 <=1 
C1100: x43+x53-y43_53 <=1 
C1101: x43+x55-y43_55 <=1 
C1102: x43+x56 <=1 
C1103: x43+x57-y43_57 <=1 
C1104: x43+x58-y43_58 <=1 
C1105: x43+x59-y43_59 <=1 
C1106: x43+x60-y43_60 <=1 
C1107: x43+x62-y43_62 <=1 
C1108: x44+x48 <=1 
C1109: x44+x49-y44_49 <=1 
C1110: x44+x51 <=1 
C1111: x44+x53 <=1 
C1112: x44+x54 <=1 
C1113: x44+x56 <=1 
C1114: x44+x57-y44_57 <=1 
C1115: x44+x58 <=1 
C1116: x44+x59 <=1 
C1117: x44+x60 <=1 
C1118: x44+x62-y44_62 <=1 
C1119: x45+x47 <=1 
C1120: x45+x49 <=1 
C1121: x45+x53 <=1 
C1122: x45+x54 <=1 
C1123: x45+x55-y45_55 <=1 
C1124: x45+x56-y45_56 <=1 
C1125: x45+x57 <=1 
C1126: x45+x58-y45_58 <=1 
C1127: x45+x59 <=1 
C1128: x45+x60-y45_60 <=1 
C1129: x45+x61-y45_61 <=1 
C1130: x45+x62-y45_62 <=1 
C1131: x46+x47-y46_47 <=1 
C1132: x46+x48-y46_48 <=1 
C1133: x46+x50-y46_50 <=1 
C1134: x46+x52 <=1 
C1135: x46+x53 <=1 
C1136: x46+x54 <=1 
C1137: x46+x55 <=1 
C1138: x46+x56 <=1 
C1139: x46+x58-y46_58 <=1 
C1140: x46+x59 <=1 
C1141: x46+x60-y46_60 <=1 
C1142: x46+x61-y46_61 <=1 
C1143: x46+x62-y46_62 <=1 
C1144: x47+x48-y47_48 <=1 
C1145: x47+x51-y47_51 <=1 
C1146: x47+x53 <=1 
C1147: x47+x56-y47_56 <=1 
C1148: x47+x57-y47_57 <=1 
C1149: x47+x58 <=1 
C1150: x47+x60 <=1 
C1151: x47+x62 <=1 
C1152: x48+x49-y48_49 <=1 
C1153: x48+x51-y48_51 <=1 
C1154: x48+x55-y48_55 <=1 
C1155: x48+x56 <=1 
C1156: x48+x57-y48_57 <=1 
C1157: x48+x58-y48_58 <=1 
C1158: x48+x60 <=1 
C1159: x48+x62 <=1 
C1160: x49+x52 <=1 
C1161: x49+x53-y49_53 <=1 
C1162: x49+x54 <=1 
C1163: x49+x55-y49_55 <=1 
C1164: x49+x57 <=1 
C1165: x50+x51 <=1 
C1166: x50+x53 <=1 
C1167: x50+x55-y50_55 <=1 
C1168: x50+x56 <=1 
C1169: x50+x58-y50_58 <=1 
C1170: x50+x59 <=1 
C1171: x51+x52-y51_52 <=1 
C1172: x51+x54-y51_54 <=1 
C1173: x51+x55 <=1 
C1174: x51+x56 <=1 
C1175: x51+x59-y51_59 <=1 
C1176: x51+x61 <=1 
C1177: x51+x62 <=1 
C1178: x52+x53 <=1 
C1179: x52+x55 <=1 
C1180: x52+x57-y52_57 <=1 
C1181: x52+x59-y52_59 <=1 
C1182: x52+x61 <=1 
C1183: x53+x55 <=1 
C1184: x53+x56-y53_56 <=1 
C1185: x53+x58-y53_58 <=1 
C1186: x53+x59-y53_59 <=1 
C1187: x53+x60 <=1 
C1188: x54+x55 <=1 
C1189: x54+x57 <=1 
C1190: x54+x58-y54_58 <=1 
C1191: x54+x59-y54_59 <=1 
C1192: x54+x61 <=1 
C1193: x55+x56-y55_56 <=1 
C1194: x55+x58 <=1 
C1195: x55+x60 <=1 
C1196: x55+x61-y55_61 <=1 
C1197: x55+x62-y55_62 <=1 
C1198: x56+x57 <=1 
C1199: x56+x59-y56_59 <=1 
C1200: x56+x61-y56_61 <=1 
C1201: x57+x59 <=1 
C1202: x57+x60 <=1 
C1203: x57+x61 <=1 
C1204: x57+x62-y57_62 <=1 
C1205: x58+x61 <=1 
C1206: x58+x62 <=1 
C1207: x59+x61-y59_61 <=1 
C1208: x60+x62 <=1 

binary
x0
x1
x2
x3
x4
x5
x6
x7
x8
x9
x10
x11
x12
x13
x14
x15
x16
x17
x18
x19
x20
x21
x22
x23
x24
x25
x26
x27
x28
x29
x30
x31
x32
x33
x34
x35
x36
x37
x38
x39
x40
x41
x42
x43
x44
x45
x46
x47
x48
x49
x50
x51
x52
x53
x54
x55
x56
x57
x58
x59
x60
x61
x62
