problem_generation/data/GISP/train/er_n=63_m=1208_p=0.60_SET2_setparam=100.00_alpha=0.50_39.sol
objective value:                                 1081
x0                                                  1 	(obj:100)
x2                                                  1 	(obj:100)
x18                                                 1 	(obj:100)
x23                                                 1 	(obj:100)
x28                                                 1 	(obj:100)
x32                                                 1 	(obj:100)
x36                                                 1 	(obj:100)
x42                                                 1 	(obj:100)
x44                                                 1 	(obj:100)
x45                                                 1 	(obj:100)
x50                                                 1 	(obj:100)
y0_23                                               1 	(obj:-1)
y2_36                                               1 	(obj:-1)
y2_45                                               1 	(obj:-1)
y42_44                                              1 	(obj:-1)
y0_36                                               1 	(obj:-1)
y0_2                                                1 	(obj:-1)
y36_45                                              1 	(obj:-1)
y28_50                                              1 	(obj:-1)
y2_42                                               1 	(obj:-1)
y2_23                                               1 	(obj:-1)
y32_42                                              1 	(obj:-1)
y23_32                                              1 	(obj:-1)
y2_18                                               1 	(obj:-1)
y23_50                                              1 	(obj:-1)
y23_36                                              1 	(obj:-1)
y42_45                                              1 	(obj:-1)
y18_32                                              1 	(obj:-1)
y18_45                                              1 	(obj:-1)
y0_28                                               1 	(obj:-1)
